data; 
					
set c_Customers := c16	c22	c34	c54	c12	c56	c39	c38	c4	
					c13	c11	c41	c23	c46	c30	c43	c59	c8	
					c1	c52	c21	c29	c36	c49	c40;

					
set Depots := d1;

set Vehicles := 1 2 3;
										

					
					
